c parity= 1 1 1 0 1 0 0 1 0 0 0 0 1 1 1 1 1 0 0 0 0 0 1 1 1 0 1 0 0 1 0 0 
c e= 0.25
p cnf 96 65
x 1 3 4 5 6 7 8 9 10 12 16 17 18 19 23 26 -33 0
x 3 4 5 6 8 9 10 12 13 14 16 17 19 20 22 23 24 26 27 28 30 31 -34 0
x -1 2 3 4 7 8 11 12 14 16 17 18 19 20 21 22 23 26 27 30 31 -35 0
x 4 6 7 8 9 10 12 15 18 20 22 23 24 28 30 31 32 -36 0
x 1 2 3 7 8 9 12 14 15 18 22 24 25 27 30 31 32 -37 0
x -5 8 9 10 15 16 18 19 20 21 23 27 28 30 31 32 -38 0
x -3 4 7 10 11 12 14 19 21 22 23 25 26 31 32 -39 0
x 2 5 7 8 12 13 14 15 16 17 20 21 22 25 26 28 29 32 -40 0
x 2 4 6 8 10 11 12 15 17 19 22 24 26 27 28 30 -41 0
x 5 7 8 9 11 14 15 17 19 21 22 23 24 27 30 31 -42 0
x -1 7 8 11 13 15 17 20 21 24 25 28 29 31 32 -43 0
x -7 10 15 16 23 24 25 30 31 32 -44 0
x -1 2 3 6 11 13 24 27 28 29 31 -45 0
x -1 4 8 10 11 14 16 18 21 22 23 26 27 30 32 -46 0
x -1 2 6 7 8 9 11 16 17 19 20 21 22 24 26 27 30 31 32 -47 0
x 2 3 6 7 8 11 12 13 17 19 21 22 24 25 27 28 30 31 -48 0
x 2 3 4 5 9 10 13 16 21 22 23 24 26 28 29 31 -49 0
x -1 3 7 9 10 11 14 15 16 17 18 20 22 27 28 31 32 -50 0
x 3 5 7 10 11 14 19 24 29 30 31 32 -51 0
x -1 2 3 4 6 7 9 10 11 13 16 18 20 21 22 23 24 26 27 29 31 32 -52 0
x 3 4 6 8 9 10 12 13 15 18 21 22 23 24 26 28 29 30 31 -53 0
x 1 3 4 5 6 9 12 17 19 22 26 29 31 32 -54 0
x 1 4 5 7 9 11 12 13 15 17 18 20 21 26 27 29 30 -55 0
x -4 5 6 7 9 12 14 15 19 21 22 24 25 26 30 -56 0
x -1 2 3 4 5 8 10 11 18 20 22 23 25 26 27 29 32 -57 0
x 3 6 14 15 18 19 20 21 22 23 32 -58 0
x -2 3 4 6 7 10 11 13 16 19 23 24 25 28 29 30 31 -59 0
x 3 4 5 6 8 13 14 16 20 22 23 26 28 29 -60 0
x -2 3 4 6 8 9 13 15 18 19 20 22 24 27 28 30 31 32 -61 0
x 1 4 11 12 13 14 16 17 18 19 20 22 23 24 26 27 29 30 31 32 -62 0
x 1 5 6 7 9 12 14 15 17 18 19 21 23 27 28 29 32 -63 0
x 2 3 5 7 8 11 12 14 17 19 20 21 24 25 26 28 32 -64 0
x 2 3 5 6 9 10 14 16 23 26 27 30 31 32 -65 0
x 2 6 7 8 11 13 17 19 22 23 26 27 30 31 32 -66 0
x -1 3 5 7 8 9 10 13 16 17 20 21 22 23 24 25 26 28 32 -67 0
x -6 7 8 10 16 17 19 20 22 23 25 30 31 -68 0
x 1 4 5 7 10 11 12 14 16 17 18 22 25 26 29 31 -69 0
x 4 5 6 8 12 13 14 20 23 24 26 27 28 32 -70 0
x 2 3 6 8 9 10 12 13 17 18 19 20 23 24 29 32 -71 0
x 4 5 6 12 14 19 20 22 23 24 25 26 27 29 31 -72 0
x 2 5 6 7 8 9 10 11 12 14 15 18 21 27 28 32 -73 0
x 1 3 5 7 8 10 11 13 15 16 18 25 26 27 28 -74 0
x 3 7 8 9 10 12 13 16 17 18 22 23 24 26 27 28 29 -75 0
x 1 3 4 8 9 14 18 22 25 26 28 29 -76 0
x -4 5 6 8 9 10 11 14 15 18 19 20 21 24 25 28 29 32 -77 0
x 3 4 6 10 12 13 16 17 18 20 22 23 24 29 -78 0
x -1 2 3 5 7 9 10 11 13 14 18 20 21 23 25 26 28 29 31 32 -79 0
x -3 4 6 7 9 12 13 14 15 18 19 24 25 26 27 30 31 -80 0
x 1 3 5 6 7 8 11 14 15 16 18 19 20 22 23 24 28 29 31 -81 0
x 1 7 8 12 13 14 16 18 19 20 21 22 30 31 -82 0
x -1 4 5 6 7 15 16 17 19 22 26 30 32 -83 0
x -1 2 3 4 6 7 9 10 12 15 16 17 19 21 22 24 26 27 29 32 -84 0
x -4 5 6 10 11 12 14 16 18 19 20 21 23 31 -85 0
x -6 7 8 9 11 12 14 15 16 17 19 20 21 22 24 25 27 28 29 32 -86 0
x 2 3 4 5 7 9 13 14 17 22 23 25 26 27 29 32 -87 0
x -1 2 4 6 8 11 12 14 15 19 20 22 27 29 -88 0
x 4 5 11 12 14 15 21 22 23 26 30 31 -89 0
x 1 5 6 12 13 14 15 17 18 20 21 22 23 27 28 29 30 31 32 -90 0
x 3 7 9 11 13 15 20 21 22 25 26 30 -91 0
x 2 6 9 11 13 14 16 18 19 20 22 24 29 32 -92 0
x -2 4 7 9 11 12 13 18 22 24 25 26 29 31 -93 0
x 2 3 5 8 12 14 15 16 17 18 19 21 22 23 24 26 27 28 29 30 -94 0
x -1 3 5 7 10 12 13 14 18 19 21 23 27 29 30 -95 0
x -1 2 3 8 9 10 14 18 20 21 22 24 25 26 27 29 31 -96 0
d 48 33 34 35 36 37 38 39 40 41 42 43 44 45 46 47 48 49 50 51 52 53 54 55 56 57 58 59 60 61 62 63 64 65 66 67 68 69 70 71 72 73 74 75 76 77 78 79 80 81 82 83 84 85 86 87 88 89 90 91 92 93 94 95 96 0
